(declare-const X String)
; ^(((\d{4}((0[13578]|1[02])(0[1-9]|[12]\d|3[01])|(0[13456789]|1[012])(0[1-9]|[12]\d|30)|02(0[1-9]|1\d|2[0-8])))|((\d{2}[02468][048]|\d{2}[13579][26]))0229)){0,8}$
(assert (not (str.in.re X (re.++ ((_ re.loop 0 8) (re.union (re.++ ((_ re.loop 4 4) (re.range "0" "9")) (re.union (re.++ (re.union (re.++ (str.to.re "0") (re.union (str.to.re "1") (str.to.re "3") (str.to.re "5") (str.to.re "7") (str.to.re "8"))) (re.++ (str.to.re "1") (re.union (str.to.re "0") (str.to.re "2")))) (re.union (re.++ (str.to.re "0") (re.range "1" "9")) (re.++ (re.union (str.to.re "1") (str.to.re "2")) (re.range "0" "9")) (re.++ (str.to.re "3") (re.union (str.to.re "0") (str.to.re "1"))))) (re.++ (re.union (re.++ (str.to.re "0") (re.union (str.to.re "1") (str.to.re "3") (str.to.re "4") (str.to.re "5") (str.to.re "6") (str.to.re "7") (str.to.re "8") (str.to.re "9"))) (re.++ (str.to.re "1") (re.union (str.to.re "0") (str.to.re "1") (str.to.re "2")))) (re.union (re.++ (str.to.re "0") (re.range "1" "9")) (re.++ (re.union (str.to.re "1") (str.to.re "2")) (re.range "0" "9")) (str.to.re "30"))) (re.++ (str.to.re "02") (re.union (re.++ (str.to.re "0") (re.range "1" "9")) (re.++ (str.to.re "1") (re.range "0" "9")) (re.++ (str.to.re "2") (re.range "0" "8")))))) (re.++ (re.union (re.++ ((_ re.loop 2 2) (re.range "0" "9")) (re.union (str.to.re "0") (str.to.re "2") (str.to.re "4") (str.to.re "6") (str.to.re "8")) (re.union (str.to.re "0") (str.to.re "4") (str.to.re "8"))) (re.++ ((_ re.loop 2 2) (re.range "0" "9")) (re.union (str.to.re "1") (str.to.re "3") (str.to.re "5") (str.to.re "7") (str.to.re "9")) (re.union (str.to.re "2") (str.to.re "6")))) (str.to.re "0229")))) (str.to.re "\x0a")))))
; Host\x3A\w+wwwfromToolbartheServer\x3Awww\x2Esearchreslt\x2Ecom
(assert (not (str.in.re X (re.++ (str.to.re "Host:") (re.+ (re.union (re.range "0" "9") (re.range "A" "Z") (re.range "a" "z") (str.to.re "_"))) (str.to.re "wwwfromToolbartheServer:www.searchreslt.com\x0a")))))
; /filename=[^\n]*\x2exspf/i
(assert (not (str.in.re X (re.++ (str.to.re "/filename=") (re.* (re.comp (str.to.re "\x0a"))) (str.to.re ".xspf/i\x0a")))))
; ([oO0]*)([|:;=X^])([-']*)([)(oO0\]\[DPp*>X^@])
(assert (str.in.re X (re.++ (re.* (re.union (str.to.re "o") (str.to.re "O") (str.to.re "0"))) (re.union (str.to.re "|") (str.to.re ":") (str.to.re ";") (str.to.re "=") (str.to.re "X") (str.to.re "^")) (re.* (re.union (str.to.re "-") (str.to.re "'"))) (re.union (str.to.re ")") (str.to.re "(") (str.to.re "o") (str.to.re "O") (str.to.re "0") (str.to.re "]") (str.to.re "[") (str.to.re "D") (str.to.re "P") (str.to.re "p") (str.to.re "*") (str.to.re ">") (str.to.re "X") (str.to.re "^") (str.to.re "@")) (str.to.re "\x0a"))))
; /(\d*\.?\d+)\s?(px|em|ex|%|in|cn|mm|pt|pc+)/igm
(assert (not (str.in.re X (re.++ (str.to.re "/") (re.opt (re.union (str.to.re " ") (str.to.re "\x09") (str.to.re "\x0a") (str.to.re "\x0c") (str.to.re "\x0d"))) (re.union (str.to.re "px") (str.to.re "em") (str.to.re "ex") (str.to.re "%") (str.to.re "in") (str.to.re "cn") (str.to.re "mm") (str.to.re "pt") (re.++ (str.to.re "p") (re.+ (str.to.re "c")))) (str.to.re "/igm\x0a") (re.* (re.range "0" "9")) (re.opt (str.to.re ".")) (re.+ (re.range "0" "9"))))))
(check-sat)
